\* Minimize *\
Minimize
MinimiserPoids: 20 produits__ceramic + 16 produits__fer + 6 produits__plastic
Subject To
noteMax: produits__ceramic + produits__fer + produits__plastic = 20
resistance: 12 produits__ceramic + 18 produits__fer + 3 produits__plastic
 >= 12
End
